
  12    4
  10   10   10   10

   0   0   0   0   0   2 2 3 
   5  10  10  10  10   2 6 4 
   2  10  10  10  10   1 4 
   2  10  10  10  10   1 5 
   5  10  10  10  10   2 9 7 
   6  10  10  10  10   2 9 8 
   9  10  10  10  10   1 8 
   9  10  10  10  10   2 11 10 
   1  10  10  10  10   1 10 
  10  10  10  10  10   1 12
   6  10  10  10  10   1 12
   0   0   0   0   0   0 
